WARNING: for repeatability, setting FPU to use double precision
============================[ Problem Statistics ]=============================
|                                                                             |
|  Number of variables:           100                                         |
|  Number of clauses:             449                                         |
|  Parse time:                   0.00 s                                       |
|  Eliminated clauses:           0.00 Mb                                      |
|  Simplification time:          0.00 s                                       |
|                                                                             |
============================[ Search Statistics ]==============================
| Conflicts |          ORIGINAL         |          LEARNT          | Progress |
|           |    Vars  Clauses Literals |    Limit  Clauses Lit/Cl |          |
===============================================================================
|       100 |      98      445     1344 |      163      100      7 |  0.010 % |
===============================================================================
restarts              : 3
conflicts             : 229            (73233 /sec)
decisions             : 282            (0.00 % random) (90182 /sec)
propagations          : 4991           (1596098 /sec)
conflict literals     : 1400           (16.22 % deleted)
Memory used           : 13.00 MB
CPU time              : 0.003127 s

SATISFIABLE
